c created by edge2cnf
p cnf 500 3100
-1 -2 0
-1 -3 0
-1 -4 0
-1 -5 0
-2 -3 0
-2 -4 0
-2 -5 0
-3 -4 0
-3 -5 0
-4 -5 0
1 2 3 4 5 0
-6 -7 0
-6 -8 0
-6 -9 0
-6 -10 0
-7 -8 0
-7 -9 0
-7 -10 0
-8 -9 0
-8 -10 0
-9 -10 0
6 7 8 9 10 0
-11 -12 0
-11 -13 0
-11 -14 0
-11 -15 0
-12 -13 0
-12 -14 0
-12 -15 0
-13 -14 0
-13 -15 0
-14 -15 0
11 12 13 14 15 0
-16 -17 0
-16 -18 0
-16 -19 0
-16 -20 0
-17 -18 0
-17 -19 0
-17 -20 0
-18 -19 0
-18 -20 0
-19 -20 0
16 17 18 19 20 0
-21 -22 0
-21 -23 0
-21 -24 0
-21 -25 0
-22 -23 0
-22 -24 0
-22 -25 0
-23 -24 0
-23 -25 0
-24 -25 0
21 22 23 24 25 0
-26 -27 0
-26 -28 0
-26 -29 0
-26 -30 0
-27 -28 0
-27 -29 0
-27 -30 0
-28 -29 0
-28 -30 0
-29 -30 0
26 27 28 29 30 0
-31 -32 0
-31 -33 0
-31 -34 0
-31 -35 0
-32 -33 0
-32 -34 0
-32 -35 0
-33 -34 0
-33 -35 0
-34 -35 0
31 32 33 34 35 0
-36 -37 0
-36 -38 0
-36 -39 0
-36 -40 0
-37 -38 0
-37 -39 0
-37 -40 0
-38 -39 0
-38 -40 0
-39 -40 0
36 37 38 39 40 0
-41 -42 0
-41 -43 0
-41 -44 0
-41 -45 0
-42 -43 0
-42 -44 0
-42 -45 0
-43 -44 0
-43 -45 0
-44 -45 0
41 42 43 44 45 0
-46 -47 0
-46 -48 0
-46 -49 0
-46 -50 0
-47 -48 0
-47 -49 0
-47 -50 0
-48 -49 0
-48 -50 0
-49 -50 0
46 47 48 49 50 0
-51 -52 0
-51 -53 0
-51 -54 0
-51 -55 0
-52 -53 0
-52 -54 0
-52 -55 0
-53 -54 0
-53 -55 0
-54 -55 0
51 52 53 54 55 0
-56 -57 0
-56 -58 0
-56 -59 0
-56 -60 0
-57 -58 0
-57 -59 0
-57 -60 0
-58 -59 0
-58 -60 0
-59 -60 0
56 57 58 59 60 0
-61 -62 0
-61 -63 0
-61 -64 0
-61 -65 0
-62 -63 0
-62 -64 0
-62 -65 0
-63 -64 0
-63 -65 0
-64 -65 0
61 62 63 64 65 0
-66 -67 0
-66 -68 0
-66 -69 0
-66 -70 0
-67 -68 0
-67 -69 0
-67 -70 0
-68 -69 0
-68 -70 0
-69 -70 0
66 67 68 69 70 0
-71 -72 0
-71 -73 0
-71 -74 0
-71 -75 0
-72 -73 0
-72 -74 0
-72 -75 0
-73 -74 0
-73 -75 0
-74 -75 0
71 72 73 74 75 0
-76 -77 0
-76 -78 0
-76 -79 0
-76 -80 0
-77 -78 0
-77 -79 0
-77 -80 0
-78 -79 0
-78 -80 0
-79 -80 0
76 77 78 79 80 0
-81 -82 0
-81 -83 0
-81 -84 0
-81 -85 0
-82 -83 0
-82 -84 0
-82 -85 0
-83 -84 0
-83 -85 0
-84 -85 0
81 82 83 84 85 0
-86 -87 0
-86 -88 0
-86 -89 0
-86 -90 0
-87 -88 0
-87 -89 0
-87 -90 0
-88 -89 0
-88 -90 0
-89 -90 0
86 87 88 89 90 0
-91 -92 0
-91 -93 0
-91 -94 0
-91 -95 0
-92 -93 0
-92 -94 0
-92 -95 0
-93 -94 0
-93 -95 0
-94 -95 0
91 92 93 94 95 0
-96 -97 0
-96 -98 0
-96 -99 0
-96 -100 0
-97 -98 0
-97 -99 0
-97 -100 0
-98 -99 0
-98 -100 0
-99 -100 0
96 97 98 99 100 0
-101 -102 0
-101 -103 0
-101 -104 0
-101 -105 0
-102 -103 0
-102 -104 0
-102 -105 0
-103 -104 0
-103 -105 0
-104 -105 0
101 102 103 104 105 0
-106 -107 0
-106 -108 0
-106 -109 0
-106 -110 0
-107 -108 0
-107 -109 0
-107 -110 0
-108 -109 0
-108 -110 0
-109 -110 0
106 107 108 109 110 0
-111 -112 0
-111 -113 0
-111 -114 0
-111 -115 0
-112 -113 0
-112 -114 0
-112 -115 0
-113 -114 0
-113 -115 0
-114 -115 0
111 112 113 114 115 0
-116 -117 0
-116 -118 0
-116 -119 0
-116 -120 0
-117 -118 0
-117 -119 0
-117 -120 0
-118 -119 0
-118 -120 0
-119 -120 0
116 117 118 119 120 0
-121 -122 0
-121 -123 0
-121 -124 0
-121 -125 0
-122 -123 0
-122 -124 0
-122 -125 0
-123 -124 0
-123 -125 0
-124 -125 0
121 122 123 124 125 0
-126 -127 0
-126 -128 0
-126 -129 0
-126 -130 0
-127 -128 0
-127 -129 0
-127 -130 0
-128 -129 0
-128 -130 0
-129 -130 0
126 127 128 129 130 0
-131 -132 0
-131 -133 0
-131 -134 0
-131 -135 0
-132 -133 0
-132 -134 0
-132 -135 0
-133 -134 0
-133 -135 0
-134 -135 0
131 132 133 134 135 0
-136 -137 0
-136 -138 0
-136 -139 0
-136 -140 0
-137 -138 0
-137 -139 0
-137 -140 0
-138 -139 0
-138 -140 0
-139 -140 0
136 137 138 139 140 0
-141 -142 0
-141 -143 0
-141 -144 0
-141 -145 0
-142 -143 0
-142 -144 0
-142 -145 0
-143 -144 0
-143 -145 0
-144 -145 0
141 142 143 144 145 0
-146 -147 0
-146 -148 0
-146 -149 0
-146 -150 0
-147 -148 0
-147 -149 0
-147 -150 0
-148 -149 0
-148 -150 0
-149 -150 0
146 147 148 149 150 0
-151 -152 0
-151 -153 0
-151 -154 0
-151 -155 0
-152 -153 0
-152 -154 0
-152 -155 0
-153 -154 0
-153 -155 0
-154 -155 0
151 152 153 154 155 0
-156 -157 0
-156 -158 0
-156 -159 0
-156 -160 0
-157 -158 0
-157 -159 0
-157 -160 0
-158 -159 0
-158 -160 0
-159 -160 0
156 157 158 159 160 0
-161 -162 0
-161 -163 0
-161 -164 0
-161 -165 0
-162 -163 0
-162 -164 0
-162 -165 0
-163 -164 0
-163 -165 0
-164 -165 0
161 162 163 164 165 0
-166 -167 0
-166 -168 0
-166 -169 0
-166 -170 0
-167 -168 0
-167 -169 0
-167 -170 0
-168 -169 0
-168 -170 0
-169 -170 0
166 167 168 169 170 0
-171 -172 0
-171 -173 0
-171 -174 0
-171 -175 0
-172 -173 0
-172 -174 0
-172 -175 0
-173 -174 0
-173 -175 0
-174 -175 0
171 172 173 174 175 0
-176 -177 0
-176 -178 0
-176 -179 0
-176 -180 0
-177 -178 0
-177 -179 0
-177 -180 0
-178 -179 0
-178 -180 0
-179 -180 0
176 177 178 179 180 0
-181 -182 0
-181 -183 0
-181 -184 0
-181 -185 0
-182 -183 0
-182 -184 0
-182 -185 0
-183 -184 0
-183 -185 0
-184 -185 0
181 182 183 184 185 0
-186 -187 0
-186 -188 0
-186 -189 0
-186 -190 0
-187 -188 0
-187 -189 0
-187 -190 0
-188 -189 0
-188 -190 0
-189 -190 0
186 187 188 189 190 0
-191 -192 0
-191 -193 0
-191 -194 0
-191 -195 0
-192 -193 0
-192 -194 0
-192 -195 0
-193 -194 0
-193 -195 0
-194 -195 0
191 192 193 194 195 0
-196 -197 0
-196 -198 0
-196 -199 0
-196 -200 0
-197 -198 0
-197 -199 0
-197 -200 0
-198 -199 0
-198 -200 0
-199 -200 0
196 197 198 199 200 0
-201 -202 0
-201 -203 0
-201 -204 0
-201 -205 0
-202 -203 0
-202 -204 0
-202 -205 0
-203 -204 0
-203 -205 0
-204 -205 0
201 202 203 204 205 0
-206 -207 0
-206 -208 0
-206 -209 0
-206 -210 0
-207 -208 0
-207 -209 0
-207 -210 0
-208 -209 0
-208 -210 0
-209 -210 0
206 207 208 209 210 0
-211 -212 0
-211 -213 0
-211 -214 0
-211 -215 0
-212 -213 0
-212 -214 0
-212 -215 0
-213 -214 0
-213 -215 0
-214 -215 0
211 212 213 214 215 0
-216 -217 0
-216 -218 0
-216 -219 0
-216 -220 0
-217 -218 0
-217 -219 0
-217 -220 0
-218 -219 0
-218 -220 0
-219 -220 0
216 217 218 219 220 0
-221 -222 0
-221 -223 0
-221 -224 0
-221 -225 0
-222 -223 0
-222 -224 0
-222 -225 0
-223 -224 0
-223 -225 0
-224 -225 0
221 222 223 224 225 0
-226 -227 0
-226 -228 0
-226 -229 0
-226 -230 0
-227 -228 0
-227 -229 0
-227 -230 0
-228 -229 0
-228 -230 0
-229 -230 0
226 227 228 229 230 0
-231 -232 0
-231 -233 0
-231 -234 0
-231 -235 0
-232 -233 0
-232 -234 0
-232 -235 0
-233 -234 0
-233 -235 0
-234 -235 0
231 232 233 234 235 0
-236 -237 0
-236 -238 0
-236 -239 0
-236 -240 0
-237 -238 0
-237 -239 0
-237 -240 0
-238 -239 0
-238 -240 0
-239 -240 0
236 237 238 239 240 0
-241 -242 0
-241 -243 0
-241 -244 0
-241 -245 0
-242 -243 0
-242 -244 0
-242 -245 0
-243 -244 0
-243 -245 0
-244 -245 0
241 242 243 244 245 0
-246 -247 0
-246 -248 0
-246 -249 0
-246 -250 0
-247 -248 0
-247 -249 0
-247 -250 0
-248 -249 0
-248 -250 0
-249 -250 0
246 247 248 249 250 0
-251 -252 0
-251 -253 0
-251 -254 0
-251 -255 0
-252 -253 0
-252 -254 0
-252 -255 0
-253 -254 0
-253 -255 0
-254 -255 0
251 252 253 254 255 0
-256 -257 0
-256 -258 0
-256 -259 0
-256 -260 0
-257 -258 0
-257 -259 0
-257 -260 0
-258 -259 0
-258 -260 0
-259 -260 0
256 257 258 259 260 0
-261 -262 0
-261 -263 0
-261 -264 0
-261 -265 0
-262 -263 0
-262 -264 0
-262 -265 0
-263 -264 0
-263 -265 0
-264 -265 0
261 262 263 264 265 0
-266 -267 0
-266 -268 0
-266 -269 0
-266 -270 0
-267 -268 0
-267 -269 0
-267 -270 0
-268 -269 0
-268 -270 0
-269 -270 0
266 267 268 269 270 0
-271 -272 0
-271 -273 0
-271 -274 0
-271 -275 0
-272 -273 0
-272 -274 0
-272 -275 0
-273 -274 0
-273 -275 0
-274 -275 0
271 272 273 274 275 0
-276 -277 0
-276 -278 0
-276 -279 0
-276 -280 0
-277 -278 0
-277 -279 0
-277 -280 0
-278 -279 0
-278 -280 0
-279 -280 0
276 277 278 279 280 0
-281 -282 0
-281 -283 0
-281 -284 0
-281 -285 0
-282 -283 0
-282 -284 0
-282 -285 0
-283 -284 0
-283 -285 0
-284 -285 0
281 282 283 284 285 0
-286 -287 0
-286 -288 0
-286 -289 0
-286 -290 0
-287 -288 0
-287 -289 0
-287 -290 0
-288 -289 0
-288 -290 0
-289 -290 0
286 287 288 289 290 0
-291 -292 0
-291 -293 0
-291 -294 0
-291 -295 0
-292 -293 0
-292 -294 0
-292 -295 0
-293 -294 0
-293 -295 0
-294 -295 0
291 292 293 294 295 0
-296 -297 0
-296 -298 0
-296 -299 0
-296 -300 0
-297 -298 0
-297 -299 0
-297 -300 0
-298 -299 0
-298 -300 0
-299 -300 0
296 297 298 299 300 0
-301 -302 0
-301 -303 0
-301 -304 0
-301 -305 0
-302 -303 0
-302 -304 0
-302 -305 0
-303 -304 0
-303 -305 0
-304 -305 0
301 302 303 304 305 0
-306 -307 0
-306 -308 0
-306 -309 0
-306 -310 0
-307 -308 0
-307 -309 0
-307 -310 0
-308 -309 0
-308 -310 0
-309 -310 0
306 307 308 309 310 0
-311 -312 0
-311 -313 0
-311 -314 0
-311 -315 0
-312 -313 0
-312 -314 0
-312 -315 0
-313 -314 0
-313 -315 0
-314 -315 0
311 312 313 314 315 0
-316 -317 0
-316 -318 0
-316 -319 0
-316 -320 0
-317 -318 0
-317 -319 0
-317 -320 0
-318 -319 0
-318 -320 0
-319 -320 0
316 317 318 319 320 0
-321 -322 0
-321 -323 0
-321 -324 0
-321 -325 0
-322 -323 0
-322 -324 0
-322 -325 0
-323 -324 0
-323 -325 0
-324 -325 0
321 322 323 324 325 0
-326 -327 0
-326 -328 0
-326 -329 0
-326 -330 0
-327 -328 0
-327 -329 0
-327 -330 0
-328 -329 0
-328 -330 0
-329 -330 0
326 327 328 329 330 0
-331 -332 0
-331 -333 0
-331 -334 0
-331 -335 0
-332 -333 0
-332 -334 0
-332 -335 0
-333 -334 0
-333 -335 0
-334 -335 0
331 332 333 334 335 0
-336 -337 0
-336 -338 0
-336 -339 0
-336 -340 0
-337 -338 0
-337 -339 0
-337 -340 0
-338 -339 0
-338 -340 0
-339 -340 0
336 337 338 339 340 0
-341 -342 0
-341 -343 0
-341 -344 0
-341 -345 0
-342 -343 0
-342 -344 0
-342 -345 0
-343 -344 0
-343 -345 0
-344 -345 0
341 342 343 344 345 0
-346 -347 0
-346 -348 0
-346 -349 0
-346 -350 0
-347 -348 0
-347 -349 0
-347 -350 0
-348 -349 0
-348 -350 0
-349 -350 0
346 347 348 349 350 0
-351 -352 0
-351 -353 0
-351 -354 0
-351 -355 0
-352 -353 0
-352 -354 0
-352 -355 0
-353 -354 0
-353 -355 0
-354 -355 0
351 352 353 354 355 0
-356 -357 0
-356 -358 0
-356 -359 0
-356 -360 0
-357 -358 0
-357 -359 0
-357 -360 0
-358 -359 0
-358 -360 0
-359 -360 0
356 357 358 359 360 0
-361 -362 0
-361 -363 0
-361 -364 0
-361 -365 0
-362 -363 0
-362 -364 0
-362 -365 0
-363 -364 0
-363 -365 0
-364 -365 0
361 362 363 364 365 0
-366 -367 0
-366 -368 0
-366 -369 0
-366 -370 0
-367 -368 0
-367 -369 0
-367 -370 0
-368 -369 0
-368 -370 0
-369 -370 0
366 367 368 369 370 0
-371 -372 0
-371 -373 0
-371 -374 0
-371 -375 0
-372 -373 0
-372 -374 0
-372 -375 0
-373 -374 0
-373 -375 0
-374 -375 0
371 372 373 374 375 0
-376 -377 0
-376 -378 0
-376 -379 0
-376 -380 0
-377 -378 0
-377 -379 0
-377 -380 0
-378 -379 0
-378 -380 0
-379 -380 0
376 377 378 379 380 0
-381 -382 0
-381 -383 0
-381 -384 0
-381 -385 0
-382 -383 0
-382 -384 0
-382 -385 0
-383 -384 0
-383 -385 0
-384 -385 0
381 382 383 384 385 0
-386 -387 0
-386 -388 0
-386 -389 0
-386 -390 0
-387 -388 0
-387 -389 0
-387 -390 0
-388 -389 0
-388 -390 0
-389 -390 0
386 387 388 389 390 0
-391 -392 0
-391 -393 0
-391 -394 0
-391 -395 0
-392 -393 0
-392 -394 0
-392 -395 0
-393 -394 0
-393 -395 0
-394 -395 0
391 392 393 394 395 0
-396 -397 0
-396 -398 0
-396 -399 0
-396 -400 0
-397 -398 0
-397 -399 0
-397 -400 0
-398 -399 0
-398 -400 0
-399 -400 0
396 397 398 399 400 0
-401 -402 0
-401 -403 0
-401 -404 0
-401 -405 0
-402 -403 0
-402 -404 0
-402 -405 0
-403 -404 0
-403 -405 0
-404 -405 0
401 402 403 404 405 0
-406 -407 0
-406 -408 0
-406 -409 0
-406 -410 0
-407 -408 0
-407 -409 0
-407 -410 0
-408 -409 0
-408 -410 0
-409 -410 0
406 407 408 409 410 0
-411 -412 0
-411 -413 0
-411 -414 0
-411 -415 0
-412 -413 0
-412 -414 0
-412 -415 0
-413 -414 0
-413 -415 0
-414 -415 0
411 412 413 414 415 0
-416 -417 0
-416 -418 0
-416 -419 0
-416 -420 0
-417 -418 0
-417 -419 0
-417 -420 0
-418 -419 0
-418 -420 0
-419 -420 0
416 417 418 419 420 0
-421 -422 0
-421 -423 0
-421 -424 0
-421 -425 0
-422 -423 0
-422 -424 0
-422 -425 0
-423 -424 0
-423 -425 0
-424 -425 0
421 422 423 424 425 0
-426 -427 0
-426 -428 0
-426 -429 0
-426 -430 0
-427 -428 0
-427 -429 0
-427 -430 0
-428 -429 0
-428 -430 0
-429 -430 0
426 427 428 429 430 0
-431 -432 0
-431 -433 0
-431 -434 0
-431 -435 0
-432 -433 0
-432 -434 0
-432 -435 0
-433 -434 0
-433 -435 0
-434 -435 0
431 432 433 434 435 0
-436 -437 0
-436 -438 0
-436 -439 0
-436 -440 0
-437 -438 0
-437 -439 0
-437 -440 0
-438 -439 0
-438 -440 0
-439 -440 0
436 437 438 439 440 0
-441 -442 0
-441 -443 0
-441 -444 0
-441 -445 0
-442 -443 0
-442 -444 0
-442 -445 0
-443 -444 0
-443 -445 0
-444 -445 0
441 442 443 444 445 0
-446 -447 0
-446 -448 0
-446 -449 0
-446 -450 0
-447 -448 0
-447 -449 0
-447 -450 0
-448 -449 0
-448 -450 0
-449 -450 0
446 447 448 449 450 0
-451 -452 0
-451 -453 0
-451 -454 0
-451 -455 0
-452 -453 0
-452 -454 0
-452 -455 0
-453 -454 0
-453 -455 0
-454 -455 0
451 452 453 454 455 0
-456 -457 0
-456 -458 0
-456 -459 0
-456 -460 0
-457 -458 0
-457 -459 0
-457 -460 0
-458 -459 0
-458 -460 0
-459 -460 0
456 457 458 459 460 0
-461 -462 0
-461 -463 0
-461 -464 0
-461 -465 0
-462 -463 0
-462 -464 0
-462 -465 0
-463 -464 0
-463 -465 0
-464 -465 0
461 462 463 464 465 0
-466 -467 0
-466 -468 0
-466 -469 0
-466 -470 0
-467 -468 0
-467 -469 0
-467 -470 0
-468 -469 0
-468 -470 0
-469 -470 0
466 467 468 469 470 0
-471 -472 0
-471 -473 0
-471 -474 0
-471 -475 0
-472 -473 0
-472 -474 0
-472 -475 0
-473 -474 0
-473 -475 0
-474 -475 0
471 472 473 474 475 0
-476 -477 0
-476 -478 0
-476 -479 0
-476 -480 0
-477 -478 0
-477 -479 0
-477 -480 0
-478 -479 0
-478 -480 0
-479 -480 0
476 477 478 479 480 0
-481 -482 0
-481 -483 0
-481 -484 0
-481 -485 0
-482 -483 0
-482 -484 0
-482 -485 0
-483 -484 0
-483 -485 0
-484 -485 0
481 482 483 484 485 0
-486 -487 0
-486 -488 0
-486 -489 0
-486 -490 0
-487 -488 0
-487 -489 0
-487 -490 0
-488 -489 0
-488 -490 0
-489 -490 0
486 487 488 489 490 0
-491 -492 0
-491 -493 0
-491 -494 0
-491 -495 0
-492 -493 0
-492 -494 0
-492 -495 0
-493 -494 0
-493 -495 0
-494 -495 0
491 492 493 494 495 0
-496 -497 0
-496 -498 0
-496 -499 0
-496 -500 0
-497 -498 0
-497 -499 0
-497 -500 0
-498 -499 0
-498 -500 0
-499 -500 0
496 497 498 499 500 0
-11 -21 0
-12 -22 0
-13 -23 0
-14 -24 0
-15 -25 0
-16 -31 0
-17 -32 0
-18 -33 0
-19 -34 0
-20 -35 0
-71 -81 0
-72 -82 0
-73 -83 0
-74 -84 0
-75 -85 0
-81 -96 0
-82 -97 0
-83 -98 0
-84 -99 0
-85 -100 0
-81 -101 0
-82 -102 0
-83 -103 0
-84 -104 0
-85 -105 0
-111 -116 0
-112 -117 0
-113 -118 0
-114 -119 0
-115 -120 0
-111 -121 0
-112 -122 0
-113 -123 0
-114 -124 0
-115 -125 0
-116 -131 0
-117 -132 0
-118 -133 0
-119 -134 0
-120 -135 0
-161 -176 0
-162 -177 0
-163 -178 0
-164 -179 0
-165 -180 0
-176 -191 0
-177 -192 0
-178 -193 0
-179 -194 0
-180 -195 0
-216 -226 0
-217 -227 0
-218 -228 0
-219 -229 0
-220 -230 0
-221 -236 0
-222 -237 0
-223 -238 0
-224 -239 0
-225 -240 0
-251 -256 0
-252 -257 0
-253 -258 0
-254 -259 0
-255 -260 0
-266 -281 0
-267 -282 0
-268 -283 0
-269 -284 0
-270 -285 0
-291 -296 0
-292 -297 0
-293 -298 0
-294 -299 0
-295 -300 0
-291 -306 0
-292 -307 0
-293 -308 0
-294 -309 0
-295 -310 0
-301 -316 0
-302 -317 0
-303 -318 0
-304 -319 0
-305 -320 0
-331 -346 0
-332 -347 0
-333 -348 0
-334 -349 0
-335 -350 0
-336 -356 0
-337 -357 0
-338 -358 0
-339 -359 0
-340 -360 0
-346 -366 0
-347 -367 0
-348 -368 0
-349 -369 0
-350 -370 0
-356 -376 0
-357 -377 0
-358 -378 0
-359 -379 0
-360 -380 0
-366 -386 0
-367 -387 0
-368 -388 0
-369 -389 0
-370 -390 0
-376 -391 0
-377 -392 0
-378 -393 0
-379 -394 0
-380 -395 0
-386 -401 0
-387 -402 0
-388 -403 0
-389 -404 0
-390 -405 0
-396 -406 0
-397 -407 0
-398 -408 0
-399 -409 0
-400 -410 0
-406 -416 0
-407 -417 0
-408 -418 0
-409 -419 0
-410 -420 0
-421 -441 0
-422 -442 0
-423 -443 0
-424 -444 0
-425 -445 0
-431 -441 0
-432 -442 0
-433 -443 0
-434 -444 0
-435 -445 0
-441 -456 0
-442 -457 0
-443 -458 0
-444 -459 0
-445 -460 0
-461 -466 0
-462 -467 0
-463 -468 0
-464 -469 0
-465 -470 0
-466 -476 0
-467 -477 0
-468 -478 0
-469 -479 0
-470 -480 0
-471 -476 0
-472 -477 0
-473 -478 0
-474 -479 0
-475 -480 0
-11 -496 0
-12 -497 0
-13 -498 0
-14 -499 0
-15 -500 0
-1 -61 0
-2 -62 0
-3 -63 0
-4 -64 0
-5 -65 0
-1 -121 0
-2 -122 0
-3 -123 0
-4 -124 0
-5 -125 0
-1 -246 0
-2 -247 0
-3 -248 0
-4 -249 0
-5 -250 0
-1 -356 0
-2 -357 0
-3 -358 0
-4 -359 0
-5 -360 0
-1 -386 0
-2 -387 0
-3 -388 0
-4 -389 0
-5 -390 0
-1 -476 0
-2 -477 0
-3 -478 0
-4 -479 0
-5 -480 0
-6 -46 0
-7 -47 0
-8 -48 0
-9 -49 0
-10 -50 0
-6 -136 0
-7 -137 0
-8 -138 0
-9 -139 0
-10 -140 0
-6 -201 0
-7 -202 0
-8 -203 0
-9 -204 0
-10 -205 0
-6 -261 0
-7 -262 0
-8 -263 0
-9 -264 0
-10 -265 0
-6 -286 0
-7 -287 0
-8 -288 0
-9 -289 0
-10 -290 0
-6 -301 0
-7 -302 0
-8 -303 0
-9 -304 0
-10 -305 0
-6 -336 0
-7 -337 0
-8 -338 0
-9 -339 0
-10 -340 0
-6 -381 0
-7 -382 0
-8 -383 0
-9 -384 0
-10 -385 0
-6 -391 0
-7 -392 0
-8 -393 0
-9 -394 0
-10 -395 0
-6 -426 0
-7 -427 0
-8 -428 0
-9 -429 0
-10 -430 0
-6 -431 0
-7 -432 0
-8 -433 0
-9 -434 0
-10 -435 0
-6 -456 0
-7 -457 0
-8 -458 0
-9 -459 0
-10 -460 0
-11 -81 0
-12 -82 0
-13 -83 0
-14 -84 0
-15 -85 0
-11 -116 0
-12 -117 0
-13 -118 0
-14 -119 0
-15 -120 0
-11 -136 0
-12 -137 0
-13 -138 0
-14 -139 0
-15 -140 0
-11 -191 0
-12 -192 0
-13 -193 0
-14 -194 0
-15 -195 0
-11 -206 0
-12 -207 0
-13 -208 0
-14 -209 0
-15 -210 0
-11 -236 0
-12 -237 0
-13 -238 0
-14 -239 0
-15 -240 0
-11 -276 0
-12 -277 0
-13 -278 0
-14 -279 0
-15 -280 0
-11 -316 0
-12 -317 0
-13 -318 0
-14 -319 0
-15 -320 0
-11 -371 0
-12 -372 0
-13 -373 0
-14 -374 0
-15 -375 0
-11 -381 0
-12 -382 0
-13 -383 0
-14 -384 0
-15 -385 0
-11 -461 0
-12 -462 0
-13 -463 0
-14 -464 0
-15 -465 0
-11 -486 0
-12 -487 0
-13 -488 0
-14 -489 0
-15 -490 0
-16 -71 0
-17 -72 0
-18 -73 0
-19 -74 0
-20 -75 0
-16 -141 0
-17 -142 0
-18 -143 0
-19 -144 0
-20 -145 0
-16 -196 0
-17 -197 0
-18 -198 0
-19 -199 0
-20 -200 0
-16 -211 0
-17 -212 0
-18 -213 0
-19 -214 0
-20 -215 0
-16 -256 0
-17 -257 0
-18 -258 0
-19 -259 0
-20 -260 0
-16 -266 0
-17 -267 0
-18 -268 0
-19 -269 0
-20 -270 0
-16 -271 0
-17 -272 0
-18 -273 0
-19 -274 0
-20 -275 0
-16 -401 0
-17 -402 0
-18 -403 0
-19 -404 0
-20 -405 0
-16 -416 0
-17 -417 0
-18 -418 0
-19 -419 0
-20 -420 0
-16 -456 0
-17 -457 0
-18 -458 0
-19 -459 0
-20 -460 0
-16 -476 0
-17 -477 0
-18 -478 0
-19 -479 0
-20 -480 0
-21 -46 0
-22 -47 0
-23 -48 0
-24 -49 0
-25 -50 0
-21 -131 0
-22 -132 0
-23 -133 0
-24 -134 0
-25 -135 0
-21 -161 0
-22 -162 0
-23 -163 0
-24 -164 0
-25 -165 0
-21 -166 0
-22 -167 0
-23 -168 0
-24 -169 0
-25 -170 0
-21 -181 0
-22 -182 0
-23 -183 0
-24 -184 0
-25 -185 0
-21 -201 0
-22 -202 0
-23 -203 0
-24 -204 0
-25 -205 0
-21 -276 0
-22 -277 0
-23 -278 0
-24 -279 0
-25 -280 0
-21 -286 0
-22 -287 0
-23 -288 0
-24 -289 0
-25 -290 0
-26 -141 0
-27 -142 0
-28 -143 0
-29 -144 0
-30 -145 0
-26 -196 0
-27 -197 0
-28 -198 0
-29 -199 0
-30 -200 0
-26 -266 0
-27 -267 0
-28 -268 0
-29 -269 0
-30 -270 0
-26 -326 0
-27 -327 0
-28 -328 0
-29 -329 0
-30 -330 0
-26 -406 0
-27 -407 0
-28 -408 0
-29 -409 0
-30 -410 0
-26 -431 0
-27 -432 0
-28 -433 0
-29 -434 0
-30 -435 0
-26 -451 0
-27 -452 0
-28 -453 0
-29 -454 0
-30 -455 0
-26 -461 0
-27 -462 0
-28 -463 0
-29 -464 0
-30 -465 0
-26 -481 0
-27 -482 0
-28 -483 0
-29 -484 0
-30 -485 0
-26 -486 0
-27 -487 0
-28 -488 0
-29 -489 0
-30 -490 0
-31 -146 0
-32 -147 0
-33 -148 0
-34 -149 0
-35 -150 0
-36 -71 0
-37 -72 0
-38 -73 0
-39 -74 0
-40 -75 0
-36 -131 0
-37 -132 0
-38 -133 0
-39 -134 0
-40 -135 0
-36 -296 0
-37 -297 0
-38 -298 0
-39 -299 0
-40 -300 0
-41 -81 0
-42 -82 0
-43 -83 0
-44 -84 0
-45 -85 0
-41 -86 0
-42 -87 0
-43 -88 0
-44 -89 0
-45 -90 0
-41 -91 0
-42 -92 0
-43 -93 0
-44 -94 0
-45 -95 0
-41 -136 0
-42 -137 0
-43 -138 0
-44 -139 0
-45 -140 0
-41 -146 0
-42 -147 0
-43 -148 0
-44 -149 0
-45 -150 0
-41 -201 0
-42 -202 0
-43 -203 0
-44 -204 0
-45 -205 0
-41 -221 0
-42 -222 0
-43 -223 0
-44 -224 0
-45 -225 0
-41 -371 0
-42 -372 0
-43 -373 0
-44 -374 0
-45 -375 0
-41 -376 0
-42 -377 0
-43 -378 0
-44 -379 0
-45 -380 0
-46 -171 0
-47 -172 0
-48 -173 0
-49 -174 0
-50 -175 0
-46 -186 0
-47 -187 0
-48 -188 0
-49 -189 0
-50 -190 0
-46 -216 0
-47 -217 0
-48 -218 0
-49 -219 0
-50 -220 0
-46 -286 0
-47 -287 0
-48 -288 0
-49 -289 0
-50 -290 0
-51 -96 0
-52 -97 0
-53 -98 0
-54 -99 0
-55 -100 0
-51 -101 0
-52 -102 0
-53 -103 0
-54 -104 0
-55 -105 0
-51 -186 0
-52 -187 0
-53 -188 0
-54 -189 0
-55 -190 0
-51 -271 0
-52 -272 0
-53 -273 0
-54 -274 0
-55 -275 0
-51 -331 0
-52 -332 0
-53 -333 0
-54 -334 0
-55 -335 0
-51 -366 0
-52 -367 0
-53 -368 0
-54 -369 0
-55 -370 0
-51 -376 0
-52 -377 0
-53 -378 0
-54 -379 0
-55 -380 0
-51 -421 0
-52 -422 0
-53 -423 0
-54 -424 0
-55 -425 0
-51 -431 0
-52 -432 0
-53 -433 0
-54 -434 0
-55 -435 0
-51 -471 0
-52 -472 0
-53 -473 0
-54 -474 0
-55 -475 0
-51 -491 0
-52 -492 0
-53 -493 0
-54 -494 0
-55 -495 0
-56 -126 0
-57 -127 0
-58 -128 0
-59 -129 0
-60 -130 0
-56 -181 0
-57 -182 0
-58 -183 0
-59 -184 0
-60 -185 0
-56 -336 0
-57 -337 0
-58 -338 0
-59 -339 0
-60 -340 0
-56 -356 0
-57 -357 0
-58 -358 0
-59 -359 0
-60 -360 0
-56 -366 0
-57 -367 0
-58 -368 0
-59 -369 0
-60 -370 0
-56 -411 0
-57 -412 0
-58 -413 0
-59 -414 0
-60 -415 0
-56 -416 0
-57 -417 0
-58 -418 0
-59 -419 0
-60 -420 0
-56 -426 0
-57 -427 0
-58 -428 0
-59 -429 0
-60 -430 0
-56 -466 0
-57 -467 0
-58 -468 0
-59 -469 0
-60 -470 0
-61 -96 0
-62 -97 0
-63 -98 0
-64 -99 0
-65 -100 0
-61 -126 0
-62 -127 0
-63 -128 0
-64 -129 0
-65 -130 0
-61 -221 0
-62 -222 0
-63 -223 0
-64 -224 0
-65 -225 0
-61 -246 0
-62 -247 0
-63 -248 0
-64 -249 0
-65 -250 0
-61 -276 0
-62 -277 0
-63 -278 0
-64 -279 0
-65 -280 0
-61 -296 0
-62 -297 0
-63 -298 0
-64 -299 0
-65 -300 0
-61 -301 0
-62 -302 0
-63 -303 0
-64 -304 0
-65 -305 0
-61 -346 0
-62 -347 0
-63 -348 0
-64 -349 0
-65 -350 0
-61 -371 0
-62 -372 0
-63 -373 0
-64 -374 0
-65 -375 0
-61 -416 0
-62 -417 0
-63 -418 0
-64 -419 0
-65 -420 0
-61 -486 0
-62 -487 0
-63 -488 0
-64 -489 0
-65 -490 0
-66 -321 0
-67 -322 0
-68 -323 0
-69 -324 0
-70 -325 0
-66 -351 0
-67 -352 0
-68 -353 0
-69 -354 0
-70 -355 0
-66 -386 0
-67 -387 0
-68 -388 0
-69 -389 0
-70 -390 0
-71 -101 0
-72 -102 0
-73 -103 0
-74 -104 0
-75 -105 0
-71 -121 0
-72 -122 0
-73 -123 0
-74 -124 0
-75 -125 0
-71 -201 0
-72 -202 0
-73 -203 0
-74 -204 0
-75 -205 0
-71 -251 0
-72 -252 0
-73 -253 0
-74 -254 0
-75 -255 0
-71 -286 0
-72 -287 0
-73 -288 0
-74 -289 0
-75 -290 0
-71 -301 0
-72 -302 0
-73 -303 0
-74 -304 0
-75 -305 0
-71 -391 0
-72 -392 0
-73 -393 0
-74 -394 0
-75 -395 0
-76 -101 0
-77 -102 0
-78 -103 0
-79 -104 0
-80 -105 0
-76 -161 0
-77 -162 0
-78 -163 0
-79 -164 0
-80 -165 0
-76 -201 0
-77 -202 0
-78 -203 0
-79 -204 0
-80 -205 0
-76 -281 0
-77 -282 0
-78 -283 0
-79 -284 0
-80 -285 0
-76 -286 0
-77 -287 0
-78 -288 0
-79 -289 0
-80 -290 0
-76 -361 0
-77 -362 0
-78 -363 0
-79 -364 0
-80 -365 0
-76 -386 0
-77 -387 0
-78 -388 0
-79 -389 0
-80 -390 0
-76 -471 0
-77 -472 0
-78 -473 0
-79 -474 0
-80 -475 0
-76 -491 0
-77 -492 0
-78 -493 0
-79 -494 0
-80 -495 0
-81 -136 0
-82 -137 0
-83 -138 0
-84 -139 0
-85 -140 0
-81 -156 0
-82 -157 0
-83 -158 0
-84 -159 0
-85 -160 0
-81 -291 0
-82 -292 0
-83 -293 0
-84 -294 0
-85 -295 0
-81 -406 0
-82 -407 0
-83 -408 0
-84 -409 0
-85 -410 0
-81 -436 0
-82 -437 0
-83 -438 0
-84 -439 0
-85 -440 0
-81 -446 0
-82 -447 0
-83 -448 0
-84 -449 0
-85 -450 0
-81 -486 0
-82 -487 0
-83 -488 0
-84 -489 0
-85 -490 0
-81 -491 0
-82 -492 0
-83 -493 0
-84 -494 0
-85 -495 0
-86 -226 0
-87 -227 0
-88 -228 0
-89 -229 0
-90 -230 0
-86 -291 0
-87 -292 0
-88 -293 0
-89 -294 0
-90 -295 0
-86 -321 0
-87 -322 0
-88 -323 0
-89 -324 0
-90 -325 0
-86 -391 0
-87 -392 0
-88 -393 0
-89 -394 0
-90 -395 0
-91 -166 0
-92 -167 0
-93 -168 0
-94 -169 0
-95 -170 0
-96 -161 0
-97 -162 0
-98 -163 0
-99 -164 0
-100 -165 0
-96 -176 0
-97 -177 0
-98 -178 0
-99 -179 0
-100 -180 0
-96 -181 0
-97 -182 0
-98 -183 0
-99 -184 0
-100 -185 0
-96 -201 0
-97 -202 0
-98 -203 0
-99 -204 0
-100 -205 0
-96 -221 0
-97 -222 0
-98 -223 0
-99 -224 0
-100 -225 0
-96 -461 0
-97 -462 0
-98 -463 0
-99 -464 0
-100 -465 0
-101 -126 0
-102 -127 0
-103 -128 0
-104 -129 0
-105 -130 0
-101 -161 0
-102 -162 0
-103 -163 0
-104 -164 0
-105 -165 0
-101 -166 0
-102 -167 0
-103 -168 0
-104 -169 0
-105 -170 0
-101 -186 0
-102 -187 0
-103 -188 0
-104 -189 0
-105 -190 0
-101 -196 0
-102 -197 0
-103 -198 0
-104 -199 0
-105 -200 0
-101 -201 0
-102 -202 0
-103 -203 0
-104 -204 0
-105 -205 0
-101 -211 0
-102 -212 0
-103 -213 0
-104 -214 0
-105 -215 0
-101 -261 0
-102 -262 0
-103 -263 0
-104 -264 0
-105 -265 0
-101 -266 0
-102 -267 0
-103 -268 0
-104 -269 0
-105 -270 0
-101 -321 0
-102 -322 0
-103 -323 0
-104 -324 0
-105 -325 0
-101 -401 0
-102 -402 0
-103 -403 0
-104 -404 0
-105 -405 0
-101 -416 0
-102 -417 0
-103 -418 0
-104 -419 0
-105 -420 0
-101 -476 0
-102 -477 0
-103 -478 0
-104 -479 0
-105 -480 0
-106 -156 0
-107 -157 0
-108 -158 0
-109 -159 0
-110 -160 0
-106 -166 0
-107 -167 0
-108 -168 0
-109 -169 0
-110 -170 0
-106 -211 0
-107 -212 0
-108 -213 0
-109 -214 0
-110 -215 0
-106 -281 0
-107 -282 0
-108 -283 0
-109 -284 0
-110 -285 0
-106 -336 0
-107 -337 0
-108 -338 0
-109 -339 0
-110 -340 0
-106 -341 0
-107 -342 0
-108 -343 0
-109 -344 0
-110 -345 0
-106 -496 0
-107 -497 0
-108 -498 0
-109 -499 0
-110 -500 0
-111 -196 0
-112 -197 0
-113 -198 0
-114 -199 0
-115 -200 0
-111 -361 0
-112 -362 0
-113 -363 0
-114 -364 0
-115 -365 0
-111 -371 0
-112 -372 0
-113 -373 0
-114 -374 0
-115 -375 0
-111 -386 0
-112 -387 0
-113 -388 0
-114 -389 0
-115 -390 0
-111 -396 0
-112 -397 0
-113 -398 0
-114 -399 0
-115 -400 0
-111 -406 0
-112 -407 0
-113 -408 0
-114 -409 0
-115 -410 0
-111 -411 0
-112 -412 0
-113 -413 0
-114 -414 0
-115 -415 0
-111 -461 0
-112 -462 0
-113 -463 0
-114 -464 0
-115 -465 0
-116 -181 0
-117 -182 0
-118 -183 0
-119 -184 0
-120 -185 0
-116 -201 0
-117 -202 0
-118 -203 0
-119 -204 0
-120 -205 0
-116 -401 0
-117 -402 0
-118 -403 0
-119 -404 0
-120 -405 0
-121 -161 0
-122 -162 0
-123 -163 0
-124 -164 0
-125 -165 0
-121 -211 0
-122 -212 0
-123 -213 0
-124 -214 0
-125 -215 0
-121 -216 0
-122 -217 0
-123 -218 0
-124 -219 0
-125 -220 0
-121 -261 0
-122 -262 0
-123 -263 0
-124 -264 0
-125 -265 0
-121 -296 0
-122 -297 0
-123 -298 0
-124 -299 0
-125 -300 0
-121 -396 0
-122 -397 0
-123 -398 0
-124 -399 0
-125 -400 0
-126 -371 0
-127 -372 0
-128 -373 0
-129 -374 0
-130 -375 0
-126 -426 0
-127 -427 0
-128 -428 0
-129 -429 0
-130 -430 0
-131 -171 0
-132 -172 0
-133 -173 0
-134 -174 0
-135 -175 0
-131 -226 0
-132 -227 0
-133 -228 0
-134 -229 0
-135 -230 0
-131 -351 0
-132 -352 0
-133 -353 0
-134 -354 0
-135 -355 0
-131 -406 0
-132 -407 0
-133 -408 0
-134 -409 0
-135 -410 0
-131 -411 0
-132 -412 0
-133 -413 0
-134 -414 0
-135 -415 0
-131 -451 0
-132 -452 0
-133 -453 0
-134 -454 0
-135 -455 0
-136 -211 0
-137 -212 0
-138 -213 0
-139 -214 0
-140 -215 0
-136 -341 0
-137 -342 0
-138 -343 0
-139 -344 0
-140 -345 0
-136 -456 0
-137 -457 0
-138 -458 0
-139 -459 0
-140 -460 0
-136 -491 0
-137 -492 0
-138 -493 0
-139 -494 0
-140 -495 0
-141 -181 0
-142 -182 0
-143 -183 0
-144 -184 0
-145 -185 0
-141 -186 0
-142 -187 0
-143 -188 0
-144 -189 0
-145 -190 0
-141 -206 0
-142 -207 0
-143 -208 0
-144 -209 0
-145 -210 0
-141 -266 0
-142 -267 0
-143 -268 0
-144 -269 0
-145 -270 0
-141 -336 0
-142 -337 0
-143 -338 0
-144 -339 0
-145 -340 0
-141 -351 0
-142 -352 0
-143 -353 0
-144 -354 0
-145 -355 0
-141 -401 0
-142 -402 0
-143 -403 0
-144 -404 0
-145 -405 0
-146 -201 0
-147 -202 0
-148 -203 0
-149 -204 0
-150 -205 0
-146 -321 0
-147 -322 0
-148 -323 0
-149 -324 0
-150 -325 0
-146 -406 0
-147 -407 0
-148 -408 0
-149 -409 0
-150 -410 0
-151 -186 0
-152 -187 0
-153 -188 0
-154 -189 0
-155 -190 0
-151 -191 0
-152 -192 0
-153 -193 0
-154 -194 0
-155 -195 0
-151 -266 0
-152 -267 0
-153 -268 0
-154 -269 0
-155 -270 0
-151 -271 0
-152 -272 0
-153 -273 0
-154 -274 0
-155 -275 0
-151 -326 0
-152 -327 0
-153 -328 0
-154 -329 0
-155 -330 0
-156 -316 0
-157 -317 0
-158 -318 0
-159 -319 0
-160 -320 0
-156 -321 0
-157 -322 0
-158 -323 0
-159 -324 0
-160 -325 0
-161 -301 0
-162 -302 0
-163 -303 0
-164 -304 0
-165 -305 0
-166 -231 0
-167 -232 0
-168 -233 0
-169 -234 0
-170 -235 0
-166 -276 0
-167 -277 0
-168 -278 0
-169 -279 0
-170 -280 0
-166 -336 0
-167 -337 0
-168 -338 0
-169 -339 0
-170 -340 0
-166 -386 0
-167 -387 0
-168 -388 0
-169 -389 0
-170 -390 0
-166 -406 0
-167 -407 0
-168 -408 0
-169 -409 0
-170 -410 0
-171 -266 0
-172 -267 0
-173 -268 0
-174 -269 0
-175 -270 0
-171 -296 0
-172 -297 0
-173 -298 0
-174 -299 0
-175 -300 0
-171 -331 0
-172 -332 0
-173 -333 0
-174 -334 0
-175 -335 0
-171 -336 0
-172 -337 0
-173 -338 0
-174 -339 0
-175 -340 0
-171 -386 0
-172 -387 0
-173 -388 0
-174 -389 0
-175 -390 0
-171 -401 0
-172 -402 0
-173 -403 0
-174 -404 0
-175 -405 0
-171 -481 0
-172 -482 0
-173 -483 0
-174 -484 0
-175 -485 0
-176 -276 0
-177 -277 0
-178 -278 0
-179 -279 0
-180 -280 0
-176 -371 0
-177 -372 0
-178 -373 0
-179 -374 0
-180 -375 0
-176 -431 0
-177 -432 0
-178 -433 0
-179 -434 0
-180 -435 0
-176 -496 0
-177 -497 0
-178 -498 0
-179 -499 0
-180 -500 0
-181 -216 0
-182 -217 0
-183 -218 0
-184 -219 0
-185 -220 0
-181 -251 0
-182 -252 0
-183 -253 0
-184 -254 0
-185 -255 0
-181 -311 0
-182 -312 0
-183 -313 0
-184 -314 0
-185 -315 0
-181 -346 0
-182 -347 0
-183 -348 0
-184 -349 0
-185 -350 0
-181 -351 0
-182 -352 0
-183 -353 0
-184 -354 0
-185 -355 0
-181 -421 0
-182 -422 0
-183 -423 0
-184 -424 0
-185 -425 0
-181 -481 0
-182 -482 0
-183 -483 0
-184 -484 0
-185 -485 0
-181 -486 0
-182 -487 0
-183 -488 0
-184 -489 0
-185 -490 0
-186 -281 0
-187 -282 0
-188 -283 0
-189 -284 0
-190 -285 0
-186 -331 0
-187 -332 0
-188 -333 0
-189 -334 0
-190 -335 0
-186 -366 0
-187 -367 0
-188 -368 0
-189 -369 0
-190 -370 0
-186 -486 0
-187 -487 0
-188 -488 0
-189 -489 0
-190 -490 0
-191 -256 0
-192 -257 0
-193 -258 0
-194 -259 0
-195 -260 0
-191 -296 0
-192 -297 0
-193 -298 0
-194 -299 0
-195 -300 0
-191 -341 0
-192 -342 0
-193 -343 0
-194 -344 0
-195 -345 0
-191 -356 0
-192 -357 0
-193 -358 0
-194 -359 0
-195 -360 0
-191 -496 0
-192 -497 0
-193 -498 0
-194 -499 0
-195 -500 0
-196 -326 0
-197 -327 0
-198 -328 0
-199 -329 0
-200 -330 0
-201 -266 0
-202 -267 0
-203 -268 0
-204 -269 0
-205 -270 0
-201 -466 0
-202 -467 0
-203 -468 0
-204 -469 0
-205 -470 0
-206 -246 0
-207 -247 0
-208 -248 0
-209 -249 0
-210 -250 0
-206 -266 0
-207 -267 0
-208 -268 0
-209 -269 0
-210 -270 0
-206 -276 0
-207 -277 0
-208 -278 0
-209 -279 0
-210 -280 0
-206 -291 0
-207 -292 0
-208 -293 0
-209 -294 0
-210 -295 0
-206 -476 0
-207 -477 0
-208 -478 0
-209 -479 0
-210 -480 0
-211 -436 0
-212 -437 0
-213 -438 0
-214 -439 0
-215 -440 0
-211 -441 0
-212 -442 0
-213 -443 0
-214 -444 0
-215 -445 0
-216 -431 0
-217 -432 0
-218 -433 0
-219 -434 0
-220 -435 0
-216 -456 0
-217 -457 0
-218 -458 0
-219 -459 0
-220 -460 0
-216 -471 0
-217 -472 0
-218 -473 0
-219 -474 0
-220 -475 0
-221 -271 0
-222 -272 0
-223 -273 0
-224 -274 0
-225 -275 0
-221 -291 0
-222 -292 0
-223 -293 0
-224 -294 0
-225 -295 0
-221 -296 0
-222 -297 0
-223 -298 0
-224 -299 0
-225 -300 0
-221 -356 0
-222 -357 0
-223 -358 0
-224 -359 0
-225 -360 0
-221 -396 0
-222 -397 0
-223 -398 0
-224 -399 0
-225 -400 0
-221 -471 0
-222 -472 0
-223 -473 0
-224 -474 0
-225 -475 0
-226 -266 0
-227 -267 0
-228 -268 0
-229 -269 0
-230 -270 0
-226 -441 0
-227 -442 0
-228 -443 0
-229 -444 0
-230 -445 0
-231 -356 0
-232 -357 0
-233 -358 0
-234 -359 0
-235 -360 0
-231 -411 0
-232 -412 0
-233 -413 0
-234 -414 0
-235 -415 0
-231 -436 0
-232 -437 0
-233 -438 0
-234 -439 0
-235 -440 0
-236 -286 0
-237 -287 0
-238 -288 0
-239 -289 0
-240 -290 0
-236 -376 0
-237 -377 0
-238 -378 0
-239 -379 0
-240 -380 0
-236 -386 0
-237 -387 0
-238 -388 0
-239 -389 0
-240 -390 0
-236 -406 0
-237 -407 0
-238 -408 0
-239 -409 0
-240 -410 0
-236 -466 0
-237 -467 0
-238 -468 0
-239 -469 0
-240 -470 0
-241 -336 0
-242 -337 0
-243 -338 0
-244 -339 0
-245 -340 0
-241 -396 0
-242 -397 0
-243 -398 0
-244 -399 0
-245 -400 0
-246 -346 0
-247 -347 0
-248 -348 0
-249 -349 0
-250 -350 0
-246 -471 0
-247 -472 0
-248 -473 0
-249 -474 0
-250 -475 0
-251 -416 0
-252 -417 0
-253 -418 0
-254 -419 0
-255 -420 0
-251 -426 0
-252 -427 0
-253 -428 0
-254 -429 0
-255 -430 0
-251 -456 0
-252 -457 0
-253 -458 0
-254 -459 0
-255 -460 0
-251 -476 0
-252 -477 0
-253 -478 0
-254 -479 0
-255 -480 0
-256 -286 0
-257 -287 0
-258 -288 0
-259 -289 0
-260 -290 0
-256 -311 0
-257 -312 0
-258 -313 0
-259 -314 0
-260 -315 0
-256 -326 0
-257 -327 0
-258 -328 0
-259 -329 0
-260 -330 0
-256 -356 0
-257 -357 0
-258 -358 0
-259 -359 0
-260 -360 0
-256 -406 0
-257 -407 0
-258 -408 0
-259 -409 0
-260 -410 0
-256 -441 0
-257 -442 0
-258 -443 0
-259 -444 0
-260 -445 0
-261 -396 0
-262 -397 0
-263 -398 0
-264 -399 0
-265 -400 0
-261 -446 0
-262 -447 0
-263 -448 0
-264 -449 0
-265 -450 0
-266 -396 0
-267 -397 0
-268 -398 0
-269 -399 0
-270 -400 0
-266 -421 0
-267 -422 0
-268 -423 0
-269 -424 0
-270 -425 0
-266 -426 0
-267 -427 0
-268 -428 0
-269 -429 0
-270 -430 0
-266 -466 0
-267 -467 0
-268 -468 0
-269 -469 0
-270 -470 0
-271 -341 0
-272 -342 0
-273 -343 0
-274 -344 0
-275 -345 0
-271 -396 0
-272 -397 0
-273 -398 0
-274 -399 0
-275 -400 0
-271 -441 0
-272 -442 0
-273 -443 0
-274 -444 0
-275 -445 0
-271 -451 0
-272 -452 0
-273 -453 0
-274 -454 0
-275 -455 0
-271 -456 0
-272 -457 0
-273 -458 0
-274 -459 0
-275 -460 0
-271 -476 0
-272 -477 0
-273 -478 0
-274 -479 0
-275 -480 0
-271 -491 0
-272 -492 0
-273 -493 0
-274 -494 0
-275 -495 0
-276 -371 0
-277 -372 0
-278 -373 0
-279 -374 0
-280 -375 0
-276 -496 0
-277 -497 0
-278 -498 0
-279 -499 0
-280 -500 0
-281 -361 0
-282 -362 0
-283 -363 0
-284 -364 0
-285 -365 0
-281 -446 0
-282 -447 0
-283 -448 0
-284 -449 0
-285 -450 0
-281 -456 0
-282 -457 0
-283 -458 0
-284 -459 0
-285 -460 0
-281 -481 0
-282 -482 0
-283 -483 0
-284 -484 0
-285 -485 0
-286 -411 0
-287 -412 0
-288 -413 0
-289 -414 0
-290 -415 0
-286 -441 0
-287 -442 0
-288 -443 0
-289 -444 0
-290 -445 0
-286 -446 0
-287 -447 0
-288 -448 0
-289 -449 0
-290 -450 0
-286 -476 0
-287 -477 0
-288 -478 0
-289 -479 0
-290 -480 0
-286 -481 0
-287 -482 0
-288 -483 0
-289 -484 0
-290 -485 0
-291 -326 0
-292 -327 0
-293 -328 0
-294 -329 0
-295 -330 0
-291 -451 0
-292 -452 0
-293 -453 0
-294 -454 0
-295 -455 0
-291 -456 0
-292 -457 0
-293 -458 0
-294 -459 0
-295 -460 0
-291 -491 0
-292 -492 0
-293 -493 0
-294 -494 0
-295 -495 0
-296 -351 0
-297 -352 0
-298 -353 0
-299 -354 0
-300 -355 0
-296 -356 0
-297 -357 0
-298 -358 0
-299 -359 0
-300 -360 0
-296 -431 0
-297 -432 0
-298 -433 0
-299 -434 0
-300 -435 0
-296 -456 0
-297 -457 0
-298 -458 0
-299 -459 0
-300 -460 0
-301 -336 0
-302 -337 0
-303 -338 0
-304 -339 0
-305 -340 0
-301 -366 0
-302 -367 0
-303 -368 0
-304 -369 0
-305 -370 0
-301 -421 0
-302 -422 0
-303 -423 0
-304 -424 0
-305 -425 0
-306 -371 0
-307 -372 0
-308 -373 0
-309 -374 0
-310 -375 0
-306 -381 0
-307 -382 0
-308 -383 0
-309 -384 0
-310 -385 0
-306 -426 0
-307 -427 0
-308 -428 0
-309 -429 0
-310 -430 0
-311 -421 0
-312 -422 0
-313 -423 0
-314 -424 0
-315 -425 0
-316 -461 0
-317 -462 0
-318 -463 0
-319 -464 0
-320 -465 0
-321 -391 0
-322 -392 0
-323 -393 0
-324 -394 0
-325 -395 0
-321 -401 0
-322 -402 0
-323 -403 0
-324 -404 0
-325 -405 0
-321 -416 0
-322 -417 0
-323 -418 0
-324 -419 0
-325 -420 0
-326 -396 0
-327 -397 0
-328 -398 0
-329 -399 0
-330 -400 0
-331 -411 0
-332 -412 0
-333 -413 0
-334 -414 0
-335 -415 0
-331 -426 0
-332 -427 0
-333 -428 0
-334 -429 0
-335 -430 0
-331 -481 0
-332 -482 0
-333 -483 0
-334 -484 0
-335 -485 0
-341 -381 0
-342 -382 0
-343 -383 0
-344 -384 0
-345 -385 0
-341 -456 0
-342 -457 0
-343 -458 0
-344 -459 0
-345 -460 0
-341 -471 0
-342 -472 0
-343 -473 0
-344 -474 0
-345 -475 0
-346 -381 0
-347 -382 0
-348 -383 0
-349 -384 0
-350 -385 0
-346 -401 0
-347 -402 0
-348 -403 0
-349 -404 0
-350 -405 0
-346 -496 0
-347 -497 0
-348 -498 0
-349 -499 0
-350 -500 0
-356 -386 0
-357 -387 0
-358 -388 0
-359 -389 0
-360 -390 0
-356 -406 0
-357 -407 0
-358 -408 0
-359 -409 0
-360 -410 0
-356 -441 0
-357 -442 0
-358 -443 0
-359 -444 0
-360 -445 0
-361 -391 0
-362 -392 0
-363 -393 0
-364 -394 0
-365 -395 0
-361 -461 0
-362 -462 0
-363 -463 0
-364 -464 0
-365 -465 0
-366 -401 0
-367 -402 0
-368 -403 0
-369 -404 0
-370 -405 0
-366 -446 0
-367 -447 0
-368 -448 0
-369 -449 0
-370 -450 0
-366 -471 0
-367 -472 0
-368 -473 0
-369 -474 0
-370 -475 0
-376 -406 0
-377 -407 0
-378 -408 0
-379 -409 0
-380 -410 0
-381 -416 0
-382 -417 0
-383 -418 0
-384 -419 0
-385 -420 0
-381 -466 0
-382 -467 0
-383 -468 0
-384 -469 0
-385 -470 0
-386 -471 0
-387 -472 0
-388 -473 0
-389 -474 0
-390 -475 0
-391 -466 0
-392 -467 0
-393 -468 0
-394 -469 0
-395 -470 0
-391 -476 0
-392 -477 0
-393 -478 0
-394 -479 0
-395 -480 0
-396 -446 0
-397 -447 0
-398 -448 0
-399 -449 0
-400 -450 0
-396 -476 0
-397 -477 0
-398 -478 0
-399 -479 0
-400 -480 0
-401 -431 0
-402 -432 0
-403 -433 0
-404 -434 0
-405 -435 0
-406 -476 0
-407 -477 0
-408 -478 0
-409 -479 0
-410 -480 0
-406 -486 0
-407 -487 0
-408 -488 0
-409 -489 0
-410 -490 0
-416 -441 0
-417 -442 0
-418 -443 0
-419 -444 0
-420 -445 0
-416 -456 0
-417 -457 0
-418 -458 0
-419 -459 0
-420 -460 0
-426 -466 0
-427 -467 0
-428 -468 0
-429 -469 0
-430 -470 0
-426 -486 0
-427 -487 0
-428 -488 0
-429 -489 0
-430 -490 0
-426 -491 0
-427 -492 0
-428 -493 0
-429 -494 0
-430 -495 0
-436 -491 0
-437 -492 0
-438 -493 0
-439 -494 0
-440 -495 0
-446 -491 0
-447 -492 0
-448 -493 0
-449 -494 0
-450 -495 0
